NAME : bier127.tsp
COMMENT : Optimal tour for bier127.tsp
TYPE : TOUR
DIMENSION : 127
Total Length: 125004.6616868952
TOUR_SECTION
1
16
7
120
10
115
13
50
51
2
35
37
36
41
14
12
31
27
30
34
43
40
42
39
38
26
25
33
122
28
29
32
80
79
77
18
72
8
19
23
4
22
21
17
20
108
24
6
106
15
105
114
11
9
3
100
64
58
91
61
90
116
60
62
59
67
73
74
68
71
70
69
75
76
78
117
84
81
126
82
83
101
102
63
119
96
109
88
87
86
85
110
104
125
89
92
99
65
113
66
55
124
52
5
56
121
57
44
103
45
54
47
53
49
118
48
46
94
112
111
107
127
93
95
123
97
98
-1
EOF
